
Gurobi 11.0.0 (linux64, Python) logging started Sun Feb 18 14:18:41 2024

Set parameter Username
Set parameter LogFile to value "gurobi.log"

Gurobi 11.0.0 (linux64, Python) logging started Sun Feb 18 14:19:03 2024

Set parameter Username
Set parameter LogFile to value "gurobi.log"

Gurobi 11.0.0 (linux64, Python) logging started Sun Feb 18 14:19:14 2024

Set parameter Username
Set parameter LogFile to value "gurobi.log"

Gurobi 11.0.0 (linux64, Python) logging started Sun Feb 18 14:23:31 2024

Set parameter Username
Set parameter LogFile to value "gurobi.log"
